certificates/rado_a15_c132_N34.cnf
c Rad2 upper bound instance: x1 + 15*x2 - x3 = 132, interval [1,34]
p cnf 34 154
1 4 9 0
-1 -4 -9 0
1 10 19 0
-1 -10 -19 0
1 11 34 0
-1 -11 -34 0
2 5 9 0
-2 -5 -9 0
2 10 20 0
-2 -10 -20 0
3 6 9 0
-3 -6 -9 0
3 10 21 0
-3 -10 -21 0
4 7 9 0
-4 -7 -9 0
4 10 22 0
-4 -10 -22 0
5 8 9 0
-5 -8 -9 0
5 10 23 0
-5 -10 -23 0
6 9 0
-6 -9 0
6 10 24 0
-6 -10 -24 0
7 9 10 0
-7 -9 -10 0
7 10 25 0
-7 -10 -25 0
8 9 11 0
-8 -9 -11 0
8 10 26 0
-8 -10 -26 0
9 12 0
-9 -12 0
9 10 27 0
-9 -10 -27 0
9 10 13 0
-9 -10 -13 0
10 28 0
-10 -28 0
9 11 14 0
-9 -11 -14 0
10 11 29 0
-10 -11 -29 0
9 12 15 0
-9 -12 -15 0
10 12 30 0
-10 -12 -30 0
1 8 13 0
-1 -8 -13 0
9 13 16 0
-9 -13 -16 0
10 13 31 0
-10 -13 -31 0
2 8 14 0
-2 -8 -14 0
9 14 17 0
-9 -14 -17 0
10 14 32 0
-10 -14 -32 0
3 8 15 0
-3 -8 -15 0
9 15 18 0
-9 -15 -18 0
10 15 33 0
-10 -15 -33 0
4 8 16 0
-4 -8 -16 0
9 16 19 0
-9 -16 -19 0
10 16 34 0
-10 -16 -34 0
5 8 17 0
-5 -8 -17 0
9 17 20 0
-9 -17 -20 0
6 8 18 0
-6 -8 -18 0
9 18 21 0
-9 -18 -21 0
7 8 19 0
-7 -8 -19 0
9 19 22 0
-9 -19 -22 0
8 20 0
-8 -20 0
9 20 23 0
-9 -20 -23 0
8 9 21 0
-8 -9 -21 0
9 21 24 0
-9 -21 -24 0
8 10 22 0
-8 -10 -22 0
9 22 25 0
-9 -22 -25 0
8 11 23 0
-8 -11 -23 0
9 23 26 0
-9 -23 -26 0
8 12 24 0
-8 -12 -24 0
9 24 27 0
-9 -24 -27 0
8 13 25 0
-8 -13 -25 0
9 25 28 0
-9 -25 -28 0
8 14 26 0
-8 -14 -26 0
9 26 29 0
-9 -26 -29 0
8 15 27 0
-8 -15 -27 0
9 27 30 0
-9 -27 -30 0
1 7 28 0
-1 -7 -28 0
8 16 28 0
-8 -16 -28 0
9 28 31 0
-9 -28 -31 0
2 7 29 0
-2 -7 -29 0
8 17 29 0
-8 -17 -29 0
9 29 32 0
-9 -29 -32 0
3 7 30 0
-3 -7 -30 0
8 18 30 0
-8 -18 -30 0
9 30 33 0
-9 -30 -33 0
4 7 31 0
-4 -7 -31 0
8 19 31 0
-8 -19 -31 0
9 31 34 0
-9 -31 -34 0
5 7 32 0
-5 -7 -32 0
8 20 32 0
-8 -20 -32 0
6 7 33 0
-6 -7 -33 0
8 21 33 0
-8 -21 -33 0
7 34 0
-7 -34 0
8 22 34 0
-8 -22 -34 0
