certificates/rado_a15_c132_N34.drat
-31 -34 0
13 16 -34 0
-10 -13 31 0
10 7 0
d 10 25 7 0
-34 0
7 0
-10 0
28 0
16 0
-1 0
-8 0
11 0
19 0
26 0
13 0
20 0
22 0
-9 0
6 0
12 0
31 0
27 0
4 0
5 0
21 0
-33 0
0
